7,1,3,2,14,1,10,1,3,3,10,2,14,3,4,4,8,1,11,3,9,4,2,3,5,5;6,1,13,1,4,2,1,1,5,4,14,2,13,3,15,2,10,3,1,4,8,2,6,5,8,4,9,5,11,5;3,1,9,1,5,3,15,1,1,2,12,3,11,2,15,3,7,4,13,4,8,3,12,4,13,5,7,5;4,1,5,2,13,2,7,2,9,2,7,3,3,4,6,4,2,1,4,5,10,4,1,5,15,5,12,5,14,5,8,5;5,1,12,1,11,1,6,2,6,3,12,2,9,3,4,3,1,3,3,5,15,4,14,4,2,2,10,5,11,4,2,4,2,5;
